(set-logic QF_S)
(declare-fun var0 () String)
(declare-fun var1 () String)
(declare-fun var2 () String)
(declare-fun var3 () String)
(declare-fun var4 () String)
(declare-fun var5 () String)
(declare-fun var6 () String)
(declare-fun var7 () String)
(declare-fun var8 () String)
(declare-fun var9 () String)
(declare-fun var10 () String)
(declare-fun var11 () String)
(declare-fun var12 () String)
(declare-fun var13 () String)
(declare-fun var14 () String)
(declare-fun var15 () String)
(declare-fun var16 () String)
(declare-fun var17 () String)
(declare-fun var18 () String)
(declare-fun var19 () String)
(declare-fun var20 () String)
(declare-fun var21 () String)
(declare-fun var22 () String)
(declare-fun var23 () String)
(declare-fun var24 () String)
(declare-fun var25 () String)
(declare-fun var26 () String)
(declare-fun var27 () String)
(declare-fun var28 () String)
(declare-fun var29 () String)
(declare-fun var30 () String)
(declare-fun var31 () String)
(declare-fun var32 () String)
(declare-fun var33 () String)
(declare-fun var34 () String)
(declare-fun var35 () String)
(declare-fun var36 () String)
(declare-fun var37 () String)
(declare-fun var38 () String)
(declare-fun var39 () String)
(declare-fun var40 () String)
(declare-fun var41 () String)
(declare-fun var42 () String)
(declare-fun var43 () String)
(declare-fun var44 () String)
(declare-fun var45 () String)
(declare-fun var46 () String)
(declare-fun var47 () String)
(declare-fun var48 () String)
(declare-fun var49 () String)
(declare-fun var50 () String)
(declare-fun var51 () String)
(declare-fun var52 () String)
(declare-fun var53 () String)
(declare-fun var54 () String)
(declare-fun var55 () String)
(declare-fun var56 () String)
(declare-fun var57 () String)
(declare-fun var58 () String)
(declare-fun var59 () String)
(declare-fun var60 () String)
(assert (= var0 (str.++ var1 var2)))
(assert (= var2 (str.++ var3 var4)))
(assert (= var4 (str.++ var5 var6)))
(assert (= var6 (str.++ var7 var8)))
(assert (= var8 (str.++ var9 var10)))
(assert (= var10 (str.++ var11 var12)))
(assert (= var12 (str.++ var13 var14)))
(assert (= var14 (str.++ var15 var16)))
(assert (= var16 (str.++ var17 var18)))
(assert (= var18 (str.++ var19 var20)))
(assert (= var20 (str.++ var21 var22)))
(assert (= var22 (str.++ var23 var24)))
(assert (= var24 (str.++ var25 var26)))
(assert (= var26 (str.++ var27 var28)))
(assert (= var28 (str.++ var29 var30)))
(assert (= var30 (str.++ var31 var32)))
(assert (= var32 (str.++ var33 var34)))
(assert (= var34 (str.++ var35 var36)))
(assert (= var36 (str.++ var37 var38)))
(assert (= var38 (str.++ var39 var40)))
(assert (= var40 (str.++ var41 var42)))
(assert (= var42 (str.++ var43 var44)))
(assert (= var44 (str.++ var45 var46)))
(assert (= var46 (str.++ var47 var48)))
(assert (= var48 (str.++ var49 var50)))
(assert (= var50 (str.++ var51 var52)))
(assert (= var52 (str.++ var53 var54)))
(assert (= var54 (str.++ var55 var56)))
(assert (= var56 (str.++ var57 var58)))
(assert (= var58 (str.++ var59 var60)))
(assert (= var0 "solution"))
(assert (= "^" (str.at var13 585)))
(assert (= "t" (str.at var42 203)))
(assert (= "X" (str.at var26 508)))
(assert (= "P" (str.at var15 341)))
(assert (= "I" (str.at var56 155)))
(assert (= "N" (str.at var6 629)))
(assert (= "o" (str.at var13 280)))
(assert (= "@" (str.at var10 325)))
(assert (= "O" (str.at var33 839)))
(assert (= "E" (str.at var12 495)))
(assert (= "&" (str.at var29 592)))
(assert (= "d" (str.at var10 810)))
(assert (= "3" (str.at var60 31)))
(assert (= "=" (str.at var60 518)))
(assert (= """" (str.at var39 840)))
(assert (= "1" (str.at var56 898)))
(assert (= "R" (str.at var17 334)))
(assert (= "B" (str.at var52 658)))
(assert (= "h" (str.at var27 410)))
(assert (= "|" (str.at var27 23)))
(assert (= "f" (str.at var10 390)))
(assert (= "!" (str.at var4 964)))
(assert (= "i" (str.at var33 492)))
(assert (= "^" (str.at var42 510)))
(assert (= "F" (str.at var39 270)))
(assert (= "S" (str.at var24 742)))
(assert (= "\\" (str.at var9 406)))
(assert (= "8" (str.at var46 574)))
(assert (= "R" (str.at var2 299)))
(assert (= "-" (str.at var49 950)))
(assert (= "j" (str.at var57 591)))
(assert (= "i" (str.at var30 691)))
(assert (= "c" (str.at var24 581)))
(assert (= """" (str.at var48 23)))
(assert (= "c" (str.at var27 376)))
(assert (= "3" (str.at var37 485)))
(assert (= "_" (str.at var36 425)))
(assert (= "{" (str.at var47 869)))
(assert (= "=" (str.at var15 266)))
(assert (= "m" (str.at var3 540)))
(assert (= "|" (str.at var6 552)))
(assert (= "}" (str.at var44 774)))
(assert (= "K" (str.at var55 616)))
(assert (= "S" (str.at var46 409)))
(assert (= "(" (str.at var49 158)))
(assert (= "*" (str.at var26 808)))
(assert (= "e" (str.at var38 289)))
(assert (= "V" (str.at var5 972)))
(assert (= "o" (str.at var15 714)))
(assert (= "j" (str.at var7 445)))
(assert (= "u" (str.at var44 178)))
(assert (= "a" (str.at var25 666)))
(assert (= "1" (str.at var35 27)))
(assert (= "#" (str.at var12 863)))
(assert (= "b" (str.at var33 139)))
(assert (= "g" (str.at var14 644)))
(assert (= "F" (str.at var38 407)))
(assert (= "u" (str.at var45 31)))
(assert (= "6" (str.at var24 178)))
(assert (= "I" (str.at var5 370)))
(assert (= """" (str.at var16 435)))
(assert (= "W" (str.at var58 280)))
(assert (= "f" (str.at var14 796)))
(assert (= "E" (str.at var7 65)))
(assert (= "." (str.at var29 568)))
(assert (= "~" (str.at var26 950)))
(assert (= "^" (str.at var35 36)))
(assert (= "2" (str.at var27 626)))
(assert (= "1" (str.at var25 7)))
(assert (= "o" (str.at var15 437)))
(assert (= "L" (str.at var5 267)))
(assert (= "p" (str.at var59 50)))
(assert (= ">" (str.at var50 193)))
(assert (= "0" (str.at var33 482)))
(assert (= "~" (str.at var4 287)))
(assert (= ";" (str.at var21 673)))
(assert (= "k" (str.at var51 828)))
(assert (= "A" (str.at var41 306)))
(assert (= ";" (str.at var33 687)))
(assert (= "f" (str.at var43 586)))
(assert (= "M" (str.at var56 431)))
(assert (= ">" (str.at var7 93)))
(assert (= "N" (str.at var43 923)))
(assert (= "s" (str.at var10 277)))
(assert (= "J" (str.at var52 692)))
(assert (= "=" (str.at var8 806)))
(assert (= "]" (str.at var22 464)))
(assert (= "M" (str.at var55 721)))
(assert (= ")" (str.at var58 646)))
(assert (= "R" (str.at var1 364)))
(assert (= "o" (str.at var26 752)))
(assert (= "?" (str.at var33 23)))
(assert (= "5" (str.at var16 649)))
(assert (= "+" (str.at var48 231)))
(assert (= "5" (str.at var31 739)))
(assert (= "&" (str.at var56 40)))
(assert (= "m" (str.at var34 619)))
(assert (= "F" (str.at var18 930)))
(assert (= "x" (str.at var57 462)))
(assert (= "k" (str.at var53 298)))
(assert (= "0" (str.at var27 778)))
(assert (= "$" (str.at var17 201)))
(assert (= """" (str.at var12 445)))
(assert (= "6" (str.at var26 598)))
(assert (= "c" (str.at var15 756)))
(assert (= "0" (str.at var5 891)))
(assert (= "d" (str.at var5 634)))
(assert (= "8" (str.at var13 399)))
(assert (= "=" (str.at var21 418)))
(assert (= "&" (str.at var38 291)))
(assert (= "w" (str.at var47 196)))
(assert (= "b" (str.at var37 195)))
(assert (= "U" (str.at var58 773)))
(assert (= "W" (str.at var4 334)))
(assert (= "O" (str.at var8 215)))
(assert (= "@" (str.at var52 601)))
(assert (= "3" (str.at var46 43)))
(assert (= "%" (str.at var33 581)))
(assert (= "w" (str.at var34 578)))
(assert (= "w" (str.at var49 992)))
(assert (= "~" (str.at var38 134)))
(assert (= "s" (str.at var12 83)))
(assert (= "." (str.at var35 522)))
(assert (= "D" (str.at var10 105)))
(assert (= "e" (str.at var6 772)))
(assert (= "'" (str.at var31 957)))
(assert (= "f" (str.at var22 234)))
(assert (= "#" (str.at var12 535)))
(assert (= "S" (str.at var48 269)))
(assert (= """" (str.at var37 468)))
(assert (= "P" (str.at var24 289)))
(assert (= "u" (str.at var41 262)))
(assert (= "." (str.at var36 922)))
(assert (= "G" (str.at var30 504)))
(assert (= "#" (str.at var14 314)))
(assert (= ")" (str.at var46 572)))
(assert (= "@" (str.at var4 330)))
(assert (= "Y" (str.at var29 468)))
(assert (= "f" (str.at var43 467)))
(assert (= "N" (str.at var52 170)))
(assert (= "t" (str.at var38 849)))
(assert (= "/" (str.at var5 178)))
(assert (= "/" (str.at var41 161)))
(assert (= "z" (str.at var26 246)))
(assert (= "G" (str.at var30 703)))
(assert (= "z" (str.at var38 991)))
(assert (= "U" (str.at var45 669)))
(assert (= "j" (str.at var36 888)))
(assert (= "S" (str.at var42 54)))
(assert (= "@" (str.at var27 371)))
(assert (= "*" (str.at var30 594)))
(assert (= "]" (str.at var60 110)))
(assert (= "A" (str.at var21 345)))
(assert (= "y" (str.at var17 683)))
(assert (= "t" (str.at var52 885)))
(assert (= "d" (str.at var8 351)))
(assert (= "t" (str.at var60 132)))
(assert (= "F" (str.at var28 431)))
(assert (= "f" (str.at var47 5)))
(assert (= "v" (str.at var30 206)))
(assert (= "9" (str.at var37 633)))
(assert (= "2" (str.at var56 114)))
(assert (= "6" (str.at var53 47)))
(assert (= "d" (str.at var22 580)))
(assert (= "M" (str.at var6 667)))
(assert (= "D" (str.at var30 843)))
(assert (= "`" (str.at var10 122)))
(assert (= "q" (str.at var4 800)))
(assert (= "A" (str.at var26 549)))
(assert (= "@" (str.at var16 285)))
(assert (= "g" (str.at var8 528)))
(assert (= "m" (str.at var19 930)))
(assert (= "." (str.at var31 106)))
(assert (= "/" (str.at var54 85)))
(assert (= "b" (str.at var54 140)))
(assert (= "V" (str.at var40 909)))
(assert (= "n" (str.at var40 719)))
(assert (= "A" (str.at var6 381)))
(assert (= "{" (str.at var58 908)))
(assert (= "#" (str.at var19 435)))
(assert (= "`" (str.at var58 410)))
(assert (= "&" (str.at var18 368)))
(assert (= "S" (str.at var48 855)))
(assert (= "^" (str.at var38 495)))
(assert (= "P" (str.at var44 710)))
(assert (= "y" (str.at var24 214)))
(assert (= "U" (str.at var32 455)))
(assert (= "Z" (str.at var13 549)))
(assert (= "F" (str.at var58 907)))
(assert (= "@" (str.at var59 979)))
(assert (= "N" (str.at var15 256)))
(assert (= "`" (str.at var36 599)))
(assert (= "9" (str.at var50 636)))
(assert (= "1" (str.at var20 273)))
(assert (= "z" (str.at var14 370)))
(assert (= "?" (str.at var18 899)))
(assert (= "+" (str.at var36 848)))
(assert (= "_" (str.at var42 330)))
(assert (= "." (str.at var54 221)))
(assert (= "[" (str.at var40 442)))
(assert (= "n" (str.at var23 570)))
(assert (= "*" (str.at var28 419)))
(assert (= "-" (str.at var7 385)))
(assert (= ":" (str.at var13 89)))
(assert (= "p" (str.at var54 70)))
(assert (= "j" (str.at var48 591)))
(assert (= "v" (str.at var48 372)))
(assert (= "V" (str.at var5 183)))
(assert (= "R" (str.at var42 55)))
(assert (= "/" (str.at var23 617)))
(assert (= "?" (str.at var18 385)))
(assert (= "\\" (str.at var0 618)))
(assert (= "3" (str.at var21 698)))
(assert (= "X" (str.at var46 393)))
(assert (= "p" (str.at var50 680)))
(assert (= "]" (str.at var9 86)))
(assert (= "{" (str.at var56 256)))
(assert (= "~" (str.at var56 180)))
(assert (= "7" (str.at var52 386)))
(assert (= "g" (str.at var55 976)))
(assert (= "f" (str.at var52 686)))
(assert (= "k" (str.at var0 380)))
(assert (= "\\" (str.at var10 249)))
(assert (= "W" (str.at var39 511)))
(assert (= "E" (str.at var22 45)))
(assert (= "&" (str.at var48 654)))
(assert (= "y" (str.at var4 503)))
(assert (= "*" (str.at var1 224)))
(assert (= ")" (str.at var13 844)))
(assert (= "r" (str.at var60 589)))
(assert (= "O" (str.at var48 569)))
(assert (= "C" (str.at var27 241)))
(assert (= "x" (str.at var12 361)))
(assert (= "h" (str.at var56 646)))
(assert (= "w" (str.at var48 571)))
(assert (= "}" (str.at var56 591)))
(assert (= "p" (str.at var13 648)))
(assert (= "{" (str.at var23 718)))
(assert (= "T" (str.at var42 525)))
(assert (= "U" (str.at var10 289)))
(assert (= "u" (str.at var41 280)))
(assert (= "h" (str.at var17 977)))
(assert (= "_" (str.at var49 475)))
(assert (= "[" (str.at var0 161)))
(assert (= "G" (str.at var47 265)))
(assert (= "N" (str.at var18 662)))
(assert (= "{" (str.at var40 703)))
(assert (= "'" (str.at var43 764)))
(assert (= "h" (str.at var3 325)))
(assert (= "B" (str.at var30 216)))
(assert (= "m" (str.at var6 755)))
(assert (= ">" (str.at var1 233)))
(assert (= "B" (str.at var41 242)))
(assert (= "\\" (str.at var22 503)))
(assert (= "\\" (str.at var39 895)))
(assert (= "4" (str.at var8 216)))
(assert (= "K" (str.at var59 541)))
(assert (= "r" (str.at var18 601)))
(assert (= "}" (str.at var46 963)))
(assert (= "I" (str.at var25 184)))
(assert (= "U" (str.at var46 200)))
(assert (= "A" (str.at var1 609)))
(assert (= "G" (str.at var22 49)))
(assert (= "G" (str.at var23 282)))
(assert (= "x" (str.at var29 784)))
(assert (= "v" (str.at var30 799)))
(assert (= "t" (str.at var15 251)))
(assert (= "b" (str.at var37 356)))
(assert (= "'" (str.at var45 494)))
(assert (= "l" (str.at var9 459)))
(assert (= """" (str.at var29 544)))
(assert (= "0" (str.at var5 708)))
(assert (= "q" (str.at var3 139)))
(assert (= "/" (str.at var46 793)))
(assert (= "e" (str.at var38 961)))
(assert (= "/" (str.at var15 489)))
(assert (= """" (str.at var7 289)))
(assert (= "F" (str.at var59 929)))
(assert (= "c" (str.at var36 5)))
(assert (= "!" (str.at var26 635)))
(assert (= "H" (str.at var45 201)))
(assert (= "a" (str.at var59 319)))
(assert (= "r" (str.at var14 662)))
(assert (= "~" (str.at var13 798)))
(assert (= "r" (str.at var23 565)))
(assert (= "U" (str.at var51 936)))
(assert (= "3" (str.at var4 641)))
(assert (= "Q" (str.at var45 988)))
(assert (= "a" (str.at var1 521)))
(assert (= "$" (str.at var29 716)))
(assert (= ";" (str.at var44 461)))
(assert (= ")" (str.at var4 762)))
(assert (= "t" (str.at var21 359)))
(assert (= "c" (str.at var10 601)))
(assert (= ";" (str.at var35 177)))
(assert (= "I" (str.at var24 567)))
(assert (= "G" (str.at var55 829)))
(assert (= "0" (str.at var0 584)))
(assert (= "s" (str.at var15 203)))
(assert (= "3" (str.at var39 59)))
(assert (= "(" (str.at var55 372)))
(assert (= "u" (str.at var28 383)))
(assert (= "w" (str.at var41 235)))
(assert (= "B" (str.at var53 595)))
(assert (= "5" (str.at var11 697)))
(assert (= "_" (str.at var5 374)))
(assert (= "S" (str.at var58 733)))
(assert (= "W" (str.at var40 552)))
(assert (= ">" (str.at var20 51)))
(assert (= "e" (str.at var27 112)))
(assert (= "9" (str.at var9 636)))
(assert (= "2" (str.at var6 618)))
(assert (= "U" (str.at var3 281)))
(assert (= "b" (str.at var23 927)))
(assert (= "J" (str.at var26 915)))
(assert (= "E" (str.at var51 785)))
(assert (= "b" (str.at var10 225)))
(assert (= "$" (str.at var33 774)))
(assert (= "8" (str.at var3 833)))
(assert (= "0" (str.at var21 432)))
(assert (= "&" (str.at var31 267)))
(assert (= "R" (str.at var35 833)))
(assert (= "-" (str.at var8 640)))
(assert (= "E" (str.at var42 914)))
(assert (= "*" (str.at var33 431)))
(assert (= "&" (str.at var29 931)))
(assert (= "l" (str.at var18 366)))
(assert (= ":" (str.at var43 491)))
(assert (= "0" (str.at var6 525)))
(assert (= "*" (str.at var12 867)))
(assert (= "w" (str.at var45 829)))
(assert (= "n" (str.at var50 242)))
(assert (= "9" (str.at var48 42)))
(assert (= "C" (str.at var15 759)))
(assert (= "L" (str.at var50 345)))
(assert (= "C" (str.at var18 520)))
(assert (= "~" (str.at var56 629)))
(assert (= ":" (str.at var57 368)))
(assert (= "1" (str.at var60 125)))
(assert (= ")" (str.at var46 876)))
(assert (= "3" (str.at var38 711)))
(assert (= "+" (str.at var33 365)))
(assert (= "B" (str.at var25 663)))
(assert (= "o" (str.at var50 565)))
(assert (= "d" (str.at var50 468)))
(assert (= "9" (str.at var24 333)))
(assert (= "=" (str.at var43 383)))
(assert (= "~" (str.at var10 572)))
(assert (= "}" (str.at var18 685)))
(assert (= "x" (str.at var6 31)))
(assert (= """" (str.at var36 117)))
(assert (= "L" (str.at var51 773)))
(assert (= "k" (str.at var45 209)))
(assert (= "9" (str.at var2 91)))
(assert (= "Y" (str.at var38 447)))
(assert (= "7" (str.at var29 904)))
(assert (= "D" (str.at var46 748)))
(assert (= "/" (str.at var39 828)))
(assert (= "3" (str.at var19 585)))
(assert (= "1" (str.at var29 678)))
(assert (= "p" (str.at var39 549)))
(assert (= "H" (str.at var57 899)))
(assert (= "D" (str.at var8 898)))
(assert (= "Q" (str.at var59 770)))
(assert (= "o" (str.at var45 620)))
(assert (= "i" (str.at var18 838)))
(assert (= "w" (str.at var35 440)))
(assert (= "&" (str.at var38 100)))
(assert (= "'" (str.at var57 788)))
(assert (= "O" (str.at var15 56)))
(assert (= "5" (str.at var56 653)))
(assert (= "&" (str.at var1 933)))
(assert (= "A" (str.at var54 167)))
(assert (= "e" (str.at var38 412)))
(assert (= "%" (str.at var52 26)))
(assert (= "f" (str.at var40 277)))
(assert (= "m" (str.at var20 828)))
(assert (= "U" (str.at var59 832)))
(assert (= "1" (str.at var29 210)))
(assert (= "w" (str.at var15 716)))
(assert (= "[" (str.at var55 555)))
(assert (= "W" (str.at var58 368)))
(assert (= "#" (str.at var27 936)))
(assert (= "d" (str.at var19 65)))
(assert (= "m" (str.at var20 573)))
(assert (= "`" (str.at var32 830)))
(assert (= "i" (str.at var19 285)))
(assert (= "{" (str.at var7 142)))
(assert (= "D" (str.at var6 522)))
(assert (= "%" (str.at var22 764)))
(assert (= "_" (str.at var9 415)))
(assert (= "`" (str.at var39 195)))
(assert (= "E" (str.at var47 273)))
(assert (= "[" (str.at var17 311)))
(assert (= "4" (str.at var39 72)))
(assert (= "]" (str.at var21 331)))
(assert (= "[" (str.at var6 186)))
(assert (= "^" (str.at var21 114)))
(assert (= "e" (str.at var11 105)))
(assert (= "L" (str.at var57 27)))
(assert (= ">" (str.at var38 517)))
(assert (= "L" (str.at var29 638)))
(assert (= ":" (str.at var17 527)))
(assert (= "$" (str.at var58 536)))
(assert (= "{" (str.at var20 224)))
(assert (= "~" (str.at var29 335)))
(assert (= "I" (str.at var34 761)))
(assert (= "0" (str.at var49 199)))
(assert (= "d" (str.at var23 200)))
(assert (= "R" (str.at var55 355)))
(assert (= "," (str.at var6 194)))
(assert (= "R" (str.at var0 392)))
(assert (= ")" (str.at var51 680)))
(assert (= "." (str.at var15 728)))
(assert (= "I" (str.at var38 758)))
(assert (= "j" (str.at var37 456)))
(assert (= "N" (str.at var2 704)))
(assert (= "_" (str.at var34 536)))
(assert (= "o" (str.at var58 512)))
(assert (= "|" (str.at var28 928)))
(assert (= "W" (str.at var15 967)))
(assert (= "g" (str.at var39 696)))
(assert (= "0" (str.at var18 271)))
(assert (= "a" (str.at var6 789)))
(assert (= "8" (str.at var55 18)))
(assert (= "R" (str.at var23 638)))
(assert (= "0" (str.at var4 747)))
(assert (= "`" (str.at var20 92)))
(assert (= "V" (str.at var51 618)))
(assert (= "K" (str.at var31 708)))
(assert (= ">" (str.at var22 323)))
(assert (= "*" (str.at var2 938)))
(assert (= ">" (str.at var53 39)))
(assert (= "6" (str.at var6 784)))
(assert (= ":" (str.at var45 71)))
(assert (= "a" (str.at var22 954)))
(assert (= "o" (str.at var1 901)))
(assert (= "p" (str.at var15 36)))
(assert (= "s" (str.at var12 515)))
(assert (= "k" (str.at var48 133)))
(assert (= "&" (str.at var41 197)))
(assert (= "A" (str.at var48 295)))
(assert (= ")" (str.at var18 372)))
(assert (= "u" (str.at var10 33)))
(assert (= "'" (str.at var42 807)))
(assert (= "<" (str.at var42 183)))
(assert (= "/" (str.at var34 989)))
(assert (= "f" (str.at var56 586)))
(assert (= "H" (str.at var9 804)))
(assert (= "O" (str.at var17 222)))
(assert (= "K" (str.at var56 303)))
(assert (= "6" (str.at var1 890)))
(assert (= "I" (str.at var1 410)))
(assert (= "," (str.at var32 982)))
(assert (= "K" (str.at var23 968)))
(assert (= "S" (str.at var3 405)))
(assert (= "=" (str.at var17 129)))
(assert (= "w" (str.at var3 949)))
(assert (= "0" (str.at var50 562)))
(assert (= "w" (str.at var5 378)))
(assert (= "E" (str.at var53 276)))
(assert (= "." (str.at var18 352)))
(assert (= "#" (str.at var5 83)))
(assert (= "h" (str.at var42 853)))
(assert (= "A" (str.at var0 610)))
(assert (= "`" (str.at var23 449)))
(assert (= "X" (str.at var60 844)))
(assert (= "X" (str.at var45 193)))
(assert (= "B" (str.at var57 4)))
(assert (= "]" (str.at var55 670)))
(assert (= "$" (str.at var49 799)))
(assert (= "e" (str.at var14 951)))
(assert (= "d" (str.at var59 7)))
(assert (= "V" (str.at var8 534)))
(assert (= ":" (str.at var53 879)))
(assert (= "J" (str.at var2 973)))
(assert (= "D" (str.at var52 997)))
(assert (= "q" (str.at var44 437)))
(assert (= "i" (str.at var24 691)))
(assert (= "v" (str.at var9 808)))
(assert (= "H" (str.at var0 407)))
(assert (= "S" (str.at var51 824)))
(assert (= "J" (str.at var50 278)))
(assert (= "#" (str.at var4 394)))
(assert (= "R" (str.at var60 880)))
(assert (= "s" (str.at var48 735)))
(assert (= "," (str.at var17 228)))
(assert (= "!" (str.at var2 132)))
(assert (= "~" (str.at var45 531)))
(assert (= "A" (str.at var14 308)))
(assert (= "T" (str.at var38 462)))
(assert (= "]" (str.at var43 237)))
(assert (= "q" (str.at var7 47)))
(assert (= "L" (str.at var11 368)))
(assert (= "L" (str.at var4 223)))
(assert (= "9" (str.at var31 470)))
(assert (= "u" (str.at var22 491)))
(assert (= "*" (str.at var2 655)))
(assert (= "i" (str.at var11 856)))
(assert (= "d" (str.at var49 843)))
(assert (= "Q" (str.at var35 555)))
(assert (= "x" (str.at var30 809)))
(assert (= "|" (str.at var16 557)))
(assert (= "=" (str.at var48 996)))
(assert (= "f" (str.at var4 125)))
(assert (= "-" (str.at var18 507)))
(assert (= "w" (str.at var42 950)))
(assert (= "{" (str.at var3 541)))
(assert (= "w" (str.at var33 852)))
(assert (= "W" (str.at var14 17)))
(assert (= "B" (str.at var23 456)))
(assert (= ">" (str.at var10 251)))
(assert (= ")" (str.at var20 892)))
(assert (= "6" (str.at var48 999)))
(assert (= "^" (str.at var32 418)))
(assert (= "=" (str.at var21 804)))
(assert (= "U" (str.at var56 651)))
(assert (= "u" (str.at var28 752)))
(assert (= "(" (str.at var4 342)))
(assert (= "I" (str.at var32 162)))
(assert (= "^" (str.at var4 430)))
(assert (= "?" (str.at var33 908)))
(assert (= "P" (str.at var34 63)))
(assert (= "0" (str.at var19 719)))
(assert (= "B" (str.at var37 518)))
(assert (= "N" (str.at var54 927)))
(assert (= "9" (str.at var5 840)))
(assert (= "\\" (str.at var33 509)))
(assert (= "e" (str.at var25 800)))
(assert (= "3" (str.at var40 881)))
(assert (= "q" (str.at var59 82)))
(assert (= "j" (str.at var10 873)))
(assert (= "n" (str.at var27 73)))
(assert (= "m" (str.at var45 636)))
(assert (= "s" (str.at var2 496)))
(assert (= "'" (str.at var4 836)))
(assert (= """" (str.at var3 999)))
(assert (= "9" (str.at var1 594)))
(assert (= "b" (str.at var16 390)))
(assert (= "\\" (str.at var26 920)))
(assert (= "N" (str.at var5 101)))
(assert (= "D" (str.at var32 582)))
(assert (= "O" (str.at var31 197)))
(assert (= ";" (str.at var30 907)))
(assert (= "d" (str.at var45 213)))
(assert (= "B" (str.at var54 732)))
(assert (= "e" (str.at var38 661)))
(assert (= "K" (str.at var52 726)))
(assert (= "i" (str.at var11 243)))
(assert (= "l" (str.at var16 475)))
(assert (= "z" (str.at var50 686)))
(assert (= "9" (str.at var40 586)))
(assert (= "f" (str.at var11 964)))
(assert (= "X" (str.at var30 116)))
(assert (= "1" (str.at var36 10)))
(assert (= "%" (str.at var30 858)))
(assert (= "." (str.at var21 60)))
(assert (= "E" (str.at var59 824)))
(assert (= "i" (str.at var7 190)))
(assert (= "-" (str.at var36 283)))
(assert (= "8" (str.at var43 61)))
(assert (= "S" (str.at var40 596)))
(assert (= "*" (str.at var49 55)))
(assert (= "'" (str.at var22 170)))
(assert (= "r" (str.at var29 17)))
(assert (= "R" (str.at var59 627)))
(assert (= "l" (str.at var2 148)))
(assert (= """" (str.at var17 498)))
(assert (= "." (str.at var56 448)))
(assert (= "O" (str.at var22 662)))
(assert (= "h" (str.at var40 379)))
(assert (= "+" (str.at var2 244)))
(assert (= "5" (str.at var42 398)))
(assert (= "9" (str.at var9 159)))
(assert (= "V" (str.at var22 289)))
(assert (= "E" (str.at var33 16)))
(assert (= "X" (str.at var35 875)))
(assert (= "*" (str.at var26 289)))
(assert (= "C" (str.at var11 717)))
(assert (= "e" (str.at var3 740)))
(assert (= "3" (str.at var55 192)))
(assert (= "O" (str.at var39 334)))
(assert (= "d" (str.at var18 8)))
(assert (= "/" (str.at var2 227)))
(assert (= "b" (str.at var53 516)))
(assert (= "{" (str.at var7 212)))
(assert (= "T" (str.at var48 206)))
(assert (= "{" (str.at var33 389)))
(assert (= "Q" (str.at var47 927)))
(assert (= "3" (str.at var4 754)))
(assert (= "U" (str.at var58 42)))
(assert (= "m" (str.at var50 948)))
(assert (= "*" (str.at var56 559)))
(assert (= "," (str.at var53 830)))
(assert (= "4" (str.at var42 544)))
(assert (= "r" (str.at var52 363)))
(assert (= "g" (str.at var32 126)))
(assert (= "|" (str.at var2 924)))
(assert (= ":" (str.at var34 675)))
(assert (= "$" (str.at var15 349)))
(assert (= "|" (str.at var57 828)))
(assert (= "[" (str.at var20 588)))
(assert (= "i" (str.at var15 116)))
(assert (= "]" (str.at var9 850)))
(assert (= "x" (str.at var27 721)))
(assert (= "`" (str.at var4 864)))
(assert (= "{" (str.at var40 296)))
(assert (= "x" (str.at var6 73)))
(assert (= "+" (str.at var54 764)))
(assert (= "g" (str.at var23 503)))
(assert (= "+" (str.at var47 948)))
(assert (= "]" (str.at var25 692)))
(assert (= "$" (str.at var47 740)))
(assert (= "Q" (str.at var51 455)))
(assert (= "R" (str.at var60 567)))
(assert (= "U" (str.at var38 410)))
(assert (= "i" (str.at var41 934)))
(assert (= """" (str.at var7 287)))
(assert (= "z" (str.at var39 105)))
(assert (= "!" (str.at var40 642)))
(assert (= ")" (str.at var34 365)))
(assert (= "#" (str.at var47 378)))
(assert (= "n" (str.at var58 277)))
(assert (= "@" (str.at var6 692)))
(assert (= "=" (str.at var17 682)))
(assert (= "6" (str.at var10 112)))
(assert (= "T" (str.at var9 992)))
(assert (= "S" (str.at var27 602)))
(assert (= ">" (str.at var34 662)))
(assert (= "^" (str.at var26 562)))
(assert (= "7" (str.at var16 533)))
(assert (= "-" (str.at var41 129)))
(assert (= "A" (str.at var27 52)))
(assert (= "j" (str.at var8 559)))
(assert (= "Y" (str.at var8 529)))
(assert (= "(" (str.at var23 239)))
(assert (= "p" (str.at var26 38)))
(assert (= "@" (str.at var53 66)))
(assert (= "d" (str.at var59 349)))
(assert (= "K" (str.at var45 498)))
(assert (= "}" (str.at var53 278)))
(assert (= "g" (str.at var37 795)))
(assert (= "7" (str.at var41 401)))
(assert (= "6" (str.at var40 284)))
(assert (= ":" (str.at var16 586)))
(assert (= "\\" (str.at var1 584)))
(assert (= "?" (str.at var10 991)))
(assert (= "'" (str.at var36 212)))
(assert (= "(" (str.at var4 253)))
(assert (= ":" (str.at var4 377)))
(assert (= "M" (str.at var24 54)))
(assert (= "?" (str.at var24 647)))
(assert (= "D" (str.at var46 691)))
(assert (= "?" (str.at var14 23)))
(assert (= "E" (str.at var19 613)))
(assert (= "R" (str.at var12 378)))
(assert (= "0" (str.at var54 212)))
(assert (= "U" (str.at var36 817)))
(assert (= ":" (str.at var52 887)))
(assert (= "Y" (str.at var39 794)))
(assert (= "j" (str.at var56 896)))
(assert (= "$" (str.at var45 900)))
(assert (= "f" (str.at var1 588)))
(assert (= "}" (str.at var43 128)))
(assert (= "5" (str.at var12 419)))
(assert (= "n" (str.at var51 900)))
(assert (= "P" (str.at var23 682)))
(assert (= "!" (str.at var22 295)))
(assert (= "8" (str.at var55 585)))
(assert (= "k" (str.at var0 853)))
(assert (= "r" (str.at var30 971)))
(assert (= ";" (str.at var1 183)))
(assert (= "k" (str.at var15 57)))
(assert (= "e" (str.at var42 116)))
(assert (= "j" (str.at var26 595)))
(assert (= "," (str.at var10 290)))
(assert (= "[" (str.at var17 721)))
(assert (= "f" (str.at var10 738)))
(assert (= "%" (str.at var50 379)))
(assert (= "L" (str.at var46 419)))
(assert (= "3" (str.at var59 950)))
(assert (= "I" (str.at var33 158)))
(assert (= "6" (str.at var13 53)))
(assert (= "z" (str.at var43 354)))
(assert (= "7" (str.at var17 636)))
(assert (= "1" (str.at var49 301)))
(assert (= "}" (str.at var39 937)))
(assert (= "Z" (str.at var0 677)))
(assert (= "w" (str.at var24 220)))
(assert (= "O" (str.at var0 476)))
(assert (= "L" (str.at var48 588)))
(assert (= "B" (str.at var14 149)))
(assert (= "u" (str.at var5 478)))
(assert (= "V" (str.at var29 71)))
(assert (= "T" (str.at var15 325)))
(assert (= "j" (str.at var42 78)))
(assert (= "^" (str.at var33 640)))
(assert (= "x" (str.at var15 196)))
(assert (= "|" (str.at var38 43)))
(assert (= "@" (str.at var45 365)))
(assert (= "G" (str.at var58 935)))
(assert (= "-" (str.at var22 726)))
(assert (= "2" (str.at var5 327)))
(assert (= "G" (str.at var47 117)))
(assert (= "|" (str.at var14 447)))
(assert (= "8" (str.at var5 986)))
(assert (= "a" (str.at var56 18)))
(assert (= "k" (str.at var9 663)))
(assert (= "v" (str.at var8 899)))
(assert (= ">" (str.at var21 407)))
(assert (= "D" (str.at var26 17)))
(assert (= "S" (str.at var40 353)))
(assert (= "L" (str.at var25 448)))
(assert (= "C" (str.at var51 5)))
(assert (= "8" (str.at var49 793)))
(assert (= "{" (str.at var14 920)))
(assert (= "D" (str.at var8 555)))
(assert (= "q" (str.at var23 698)))
(assert (= "L" (str.at var60 79)))
(assert (= "x" (str.at var53 884)))
(assert (= "u" (str.at var45 26)))
(assert (= "S" (str.at var4 910)))
(assert (= "@" (str.at var48 43)))
(assert (= "M" (str.at var34 412)))
(assert (= "m" (str.at var5 465)))
(assert (= """" (str.at var39 598)))
(assert (= "'" (str.at var6 484)))
(assert (= "F" (str.at var58 506)))
(assert (= "/" (str.at var57 452)))
(assert (= "Z" (str.at var44 521)))
(assert (= "0" (str.at var55 137)))
(assert (= "a" (str.at var36 617)))
(assert (= "C" (str.at var54 177)))
(assert (= "V" (str.at var33 676)))
(assert (= ")" (str.at var2 342)))
(assert (= "H" (str.at var60 432)))
(assert (= "7" (str.at var28 463)))
(assert (= "]" (str.at var46 693)))
(assert (= "]" (str.at var23 626)))
(assert (= "t" (str.at var46 798)))
(assert (= "3" (str.at var39 708)))
(assert (= "h" (str.at var17 511)))
(assert (= "h" (str.at var60 994)))
(assert (= "|" (str.at var31 449)))
(assert (= "T" (str.at var22 335)))
(assert (= "g" (str.at var36 171)))
(assert (= "b" (str.at var3 770)))
(assert (= "U" (str.at var53 1)))
(assert (= "H" (str.at var25 902)))
(assert (= "F" (str.at var59 195)))
(assert (= "a" (str.at var41 26)))
(assert (= "," (str.at var5 786)))
(assert (= "M" (str.at var5 340)))
(assert (= "h" (str.at var28 184)))
(assert (= "6" (str.at var23 75)))
(assert (= "l" (str.at var52 368)))
(assert (= "a" (str.at var18 112)))
(assert (= "y" (str.at var36 650)))
(assert (= "^" (str.at var41 176)))
(assert (= "T" (str.at var25 907)))
(assert (= "e" (str.at var31 143)))
(assert (= "<" (str.at var12 879)))
(assert (= "Q" (str.at var2 927)))
(assert (= "3" (str.at var27 356)))
(assert (= "y" (str.at var19 574)))
(assert (= "[" (str.at var4 44)))
(assert (= "]" (str.at var48 629)))
(assert (= "y" (str.at var40 66)))
(assert (= "W" (str.at var19 567)))
(assert (= ";" (str.at var36 150)))
(assert (= "3" (str.at var30 720)))
(assert (= "C" (str.at var8 222)))
(assert (= ")" (str.at var55 287)))
(assert (= "j" (str.at var16 396)))
(assert (= "," (str.at var22 677)))
(assert (= "Y" (str.at var53 322)))
(assert (= "s" (str.at var54 15)))
(assert (= "f" (str.at var0 299)))
(assert (= "<" (str.at var8 754)))
(assert (= "W" (str.at var30 631)))
(assert (= "c" (str.at var8 189)))
(assert (= "@" (str.at var18 621)))
(assert (= "S" (str.at var52 656)))
(assert (= "=" (str.at var60 672)))
(assert (= "K" (str.at var30 27)))
(assert (= "j" (str.at var17 768)))
(assert (= "`" (str.at var43 156)))
(assert (= "J" (str.at var8 567)))
(assert (= "y" (str.at var48 580)))
(assert (= "C" (str.at var57 780)))
(assert (= "-" (str.at var4 573)))
(assert (= "L" (str.at var45 48)))
(assert (= "q" (str.at var47 434)))
(assert (= "." (str.at var41 677)))
(assert (= "!" (str.at var31 614)))
(assert (= "o" (str.at var46 948)))
(assert (= "n" (str.at var25 43)))
(assert (= "k" (str.at var40 324)))
(assert (= "W" (str.at var7 507)))
(assert (= "Q" (str.at var16 884)))
(assert (= "." (str.at var4 899)))
(assert (= "?" (str.at var5 311)))
(assert (= "T" (str.at var45 720)))
(assert (= "*" (str.at var53 307)))
(assert (= "U" (str.at var21 255)))
(assert (= "%" (str.at var14 530)))
(assert (= "|" (str.at var57 804)))
(assert (= "Y" (str.at var38 330)))
(assert (= "C" (str.at var49 602)))
(assert (= "w" (str.at var60 419)))
(assert (= "w" (str.at var46 871)))
(assert (= "W" (str.at var56 690)))
(assert (= "*" (str.at var29 509)))
(assert (= "H" (str.at var21 830)))
(assert (= "." (str.at var9 466)))
(assert (= "1" (str.at var5 794)))
(assert (= "{" (str.at var53 367)))
(assert (= "$" (str.at var59 476)))
(assert (= "\\" (str.at var41 500)))
(assert (= "=" (str.at var53 303)))
(assert (= ";" (str.at var58 784)))
(assert (= "4" (str.at var58 450)))
(assert (= "'" (str.at var36 131)))
(assert (= "9" (str.at var6 276)))
(assert (= "I" (str.at var20 455)))
(assert (= "r" (str.at var13 756)))
(assert (= "5" (str.at var50 813)))
(assert (= "(" (str.at var20 784)))
(assert (= "X" (str.at var51 895)))
(assert (= "+" (str.at var21 78)))
(assert (= "9" (str.at var27 534)))
(assert (= "e" (str.at var14 910)))
(assert (= "\\" (str.at var27 143)))
(assert (= "6" (str.at var25 64)))
(assert (= "%" (str.at var28 564)))
(assert (= "d" (str.at var46 496)))
(assert (= "[" (str.at var8 712)))
(assert (= "K" (str.at var27 179)))
(assert (= "o" (str.at var33 711)))
(assert (= ")" (str.at var10 963)))
(assert (= "]" (str.at var11 174)))
(check-sat)